; Input for solver
(set-info :status unknown)
(set-logic ALL)
(declare-fun x2 () (_ BitVec 7))
(declare-fun footprint40 () (Array (_ BitVec 7) Bool))
(declare-fun next () (Array (_ BitVec 7) (_ BitVec 7)))
(declare-fun x1 () (_ BitVec 7))
(declare-fun x5 () (_ BitVec 7))
(declare-fun footprint41 () (Array (_ BitVec 7) Bool))
(declare-fun x3 () (_ BitVec 7))
(declare-fun footprint0 () (Array (_ BitVec 7) Bool))
(declare-fun x6 () (_ BitVec 7))
(declare-fun x4 () (_ BitVec 7))
(declare-fun LS_t () (Array (_ BitVec 7) Bool))
(declare-fun footprint47 () (Array (_ BitVec 7) Bool))
(declare-fun footprint48 () (Array (_ BitVec 7) Bool))
(declare-fun footprint44 () (Array (_ BitVec 7) Bool))
(declare-fun footprint45 () (Array (_ BitVec 7) Bool))
(declare-fun footprint52 () (Array (_ BitVec 7) Bool))
(declare-fun footprint53 () (Array (_ BitVec 7) Bool))
(declare-fun footprint58 () (Array (_ BitVec 7) Bool))
(declare-fun footprint59 () (Array (_ BitVec 7) Bool))
(declare-fun footprint60 () (Array (_ BitVec 7) Bool))
(declare-fun footprint5 () (Array (_ BitVec 7) Bool))
(declare-fun footprint8 () (Array (_ BitVec 7) Bool))
(declare-fun footprint20 () (Array (_ BitVec 7) Bool))
(declare-fun footprint23 () (Array (_ BitVec 7) Bool))
(declare-fun nil () (_ BitVec 7))
(declare-fun prev () (Array (_ BitVec 7) (_ BitVec 7)))
(declare-fun top () (Array (_ BitVec 7) (_ BitVec 7)))
(assert
 (let ((?x57 ((as const (Array (_ BitVec 7) Bool)) false)))
 (let ((?x139 (store ?x57 x2 true)))
 (let (($x500 (= footprint40 ?x139)))
 (let (($x501 (and $x500 true)))
 (let ((?x136 (select next x2)))
 (let (($x498 (= x1 ?x136)))
 (let (($x499 (and $x498 true)))
 (let ((?x150 (store ?x57 x5 true)))
 (let (($x496 (= footprint41 ?x150)))
 (let (($x497 (and $x496 true)))
 (let ((?x154 (select next x5)))
 (let (($x494 (= x3 ?x154)))
 (let (($x495 (and $x494 true)))
 (let ((?x492 (intersection footprint40 footprint41)))
 (let (($x493 (= ?x57 ?x492)))
 (let ((?x489 ((as union (Array (_ BitVec 7) Bool)) ?x57 ((as union (Array (_ BitVec 7) Bool)) footprint40 footprint41))))
 (let (($x490 (= footprint0 ?x489)))
 (let (($x491 (and $x490 true)))
 (let (($x502 (and $x491 $x493 $x495 $x497 $x499 $x501)))
 (let ((?x157 (select next x4)))
 (let ((?x471 (select next ?x157)))
 (let (($x472 (= ?x471 x6)))
 (let (($x473 (and $x472 true)))
 (let (($x475 (= ?x157 x6)))
 (let (($x476 (and $x475 true)))
 (let (($x478 (= x4 x6)))
 (let (($x479 (and $x478 true)))
 (let (($x483 (or $x479 $x476 $x473)))
 (let ((?x151 (store ?x57 x4 true)))
 (let ((?x470 (store ?x151 ?x157 true)))
 (let ((?x474 (ite $x473 ?x470 ?x57)))
 (let ((?x477 (ite $x476 ?x151 ?x474)))
 (let ((?x480 (ite $x479 ?x57 ?x477)))
 (let (($x481 (= footprint0 ?x480)))
 (let (($x482 (and $x481 true)))
 (let (($x119 (subset footprint0 LS_t)))
 (let (($x484 (and $x119 $x482 $x483)))
 (let ((?x101 (store ?x57 x1 true)))
 (let (($x102 (= footprint0 ?x101)))
 (let (($x103 (and $x102 true)))
 (let ((?x98 (select next x1)))
 (let (($x142 (= x1 ?x98)))
 (let (($x143 (and $x142 true)))
 (let (($x469 (and $x143 $x103)))
 (let (($x485 (or $x469 $x484)))
 (let (($x503 (or $x485 $x502)))
 (let (($x465 (= footprint47 ?x151)))
 (let (($x466 (and $x465 true)))
 (let (($x275 (= x6 ?x157)))
 (let (($x276 (and $x275 true)))
 (let (($x463 (= footprint48 ?x151)))
 (let (($x464 (and $x463 true)))
 (let ((?x461 (intersection footprint47 footprint48)))
 (let (($x462 (= ?x57 ?x461)))
 (let ((?x458 ((as union (Array (_ BitVec 7) Bool)) ?x57 ((as union (Array (_ BitVec 7) Bool)) footprint47 footprint48))))
 (let (($x459 (= footprint0 ?x458)))
 (let (($x460 (and $x459 true)))
 (let (($x467 (and $x460 $x462 $x276 $x464 $x276 $x466)))
 (let ((?x113 (store ?x57 x3 true)))
 (let (($x452 (= footprint44 ?x113)))
 (let (($x453 (and $x452 true)))
 (let ((?x110 (select next x3)))
 (let (($x450 (= x6 ?x110)))
 (let (($x451 (and $x450 true)))
 (let (($x448 (= footprint45 ?x101)))
 (let (($x449 (and $x448 true)))
 (let (($x278 (= x2 ?x98)))
 (let (($x279 (and $x278 true)))
 (let ((?x446 (intersection footprint44 footprint45)))
 (let (($x447 (= ?x57 ?x446)))
 (let ((?x443 ((as union (Array (_ BitVec 7) Bool)) ?x57 ((as union (Array (_ BitVec 7) Bool)) footprint44 footprint45))))
 (let (($x444 (= footprint0 ?x443)))
 (let (($x445 (and $x444 true)))
 (let (($x454 (and $x445 $x447 $x279 $x449 $x451 $x453)))
 (let (($x468 (or $x454 $x467)))
 (let (($x438 (= footprint52 ?x150)))
 (let (($x439 (and $x438 true)))
 (let (($x436 (= x1 ?x154)))
 (let (($x437 (and $x436 true)))
 (let (($x434 (= footprint53 ?x151)))
 (let (($x435 (and $x434 true)))
 (let (($x210 (= x5 ?x157)))
 (let (($x211 (and $x210 true)))
 (let ((?x432 (intersection footprint52 footprint53)))
 (let (($x433 (= ?x57 ?x432)))
 (let ((?x429 ((as union (Array (_ BitVec 7) Bool)) ?x57 ((as union (Array (_ BitVec 7) Bool)) footprint52 footprint53))))
 (let (($x430 (= footprint0 ?x429)))
 (let (($x431 (and $x430 true)))
 (let (($x99 (= x5 ?x98)))
 (let (($x100 (and $x99 true)))
 (let (($x114 (= footprint0 ?x113)))
 (let (($x115 (and $x114 true)))
 (let (($x328 (= x4 ?x110)))
 (let (($x329 (and $x328 true)))
 (let (($x424 (= footprint58 ?x113)))
 (let (($x425 (and $x424 true)))
 (let (($x111 (= x2 ?x110)))
 (let (($x112 (and $x111 true)))
 (let (($x422 (= footprint59 ?x151)))
 (let (($x423 (and $x422 true)))
 (let (($x420 (= x4 ?x157)))
 (let (($x421 (and $x420 true)))
 (let (($x418 (= footprint60 ?x113)))
 (let (($x419 (and $x418 true)))
 (let ((?x415 (intersection footprint58 footprint59)))
 (let (($x416 (= ?x57 ?x415)))
 (let ((?x412 ((as union (Array (_ BitVec 7) Bool)) ?x57 ((as union (Array (_ BitVec 7) Bool)) footprint58 footprint59))))
 (let ((?x413 (intersection ?x412 footprint60)))
 (let (($x414 (= ?x57 ?x413)))
 (let (($x417 (and $x414 $x416)))
 (let ((?x408 ((as union (Array (_ BitVec 7) Bool)) ?x57 ((as union (Array (_ BitVec 7) Bool)) footprint58 ((as union (Array (_ BitVec 7) Bool)) footprint59 footprint60)))))
 (let (($x409 (= footprint0 ?x408)))
 (let (($x410 (and $x409 true)))
 (let (($x504 (and $x410 $x417 $x329 $x419 $x421 $x423 $x112 $x425 $x329 $x115 $x100 $x103 $x431 $x433 $x211 $x435 $x437 $x439 $x468 $x503)))
 (let (($x140 (= footprint0 ?x139)))
 (let (($x141 (and $x140 true)))
 (let (($x273 (= x3 ?x136)))
 (let (($x274 (and $x273 true)))
 (let ((?x104 (select next x6)))
 (let ((?x238 (select next ?x104)))
 (let (($x387 (= ?x238 x3)))
 (let (($x388 (and $x387 true)))
 (let (($x390 (= ?x104 x3)))
 (let (($x391 (and $x390 true)))
 (let (($x393 (= x6 x3)))
 (let (($x394 (and $x393 true)))
 (let (($x398 (or $x394 $x391 $x388)))
 (let ((?x107 (store ?x57 x6 true)))
 (let ((?x237 (store ?x107 ?x104 true)))
 (let ((?x389 (ite $x388 ?x237 ?x57)))
 (let ((?x392 (ite $x391 ?x107 ?x389)))
 (let ((?x395 (ite $x394 ?x57 ?x392)))
 (let (($x396 (= footprint0 ?x395)))
 (let (($x397 (and $x396 true)))
 (let (($x399 (and $x119 $x397 $x398 $x274 $x141)))
 (let ((?x302 (select next ?x136)))
 (let (($x303 (= ?x302 x6)))
 (let (($x304 (and $x303 true)))
 (let (($x300 (= ?x136 x6)))
 (let (($x301 (and $x300 true)))
 (let (($x298 (= x2 x6)))
 (let (($x299 (and $x298 true)))
 (let (($x305 (or $x299 $x301 $x304)))
 (let ((?x306 (store ?x139 ?x136 true)))
 (let ((?x307 (ite $x304 ?x306 ?x57)))
 (let ((?x308 (ite $x301 ?x139 ?x307)))
 (let ((?x309 (ite $x299 ?x57 ?x308)))
 (let (($x383 (= footprint0 ?x309)))
 (let (($x384 (and $x383 true)))
 (let (($x385 (and $x119 $x384 $x305)))
 (let (($x380 (= x5 ?x110)))
 (let (($x381 (and $x380 true)))
 (let (($x382 (and $x381 $x115)))
 (let (($x386 (or $x382 $x385)))
 (let (($x400 (or $x386 $x399)))
 (let (($x377 (= footprint5 ?x113)))
 (let (($x378 (and $x377 true)))
 (let (($x116 (= x1 ?x110)))
 (let (($x117 (and $x116 true)))
 (let (($x375 (= footprint5 ?x151)))
 (let (($x376 (and $x375 true)))
 (let (($x158 (= x2 ?x157)))
 (let (($x159 (and $x158 true)))
 (let (($x373 (= footprint8 ?x101)))
 (let (($x374 (and $x373 true)))
 (let (($x371 (= footprint8 ?x113)))
 (let (($x372 (and $x371 true)))
 (let ((?x369 (intersection footprint5 footprint8)))
 (let (($x370 (= ?x57 ?x369)))
 (let ((?x366 ((as union (Array (_ BitVec 7) Bool)) ?x57 ((as union (Array (_ BitVec 7) Bool)) footprint5 footprint8))))
 (let (($x367 (= footprint0 ?x366)))
 (let (($x368 (and $x367 true)))
 (let (($x379 (and $x368 $x370 $x117 $x372 $x279 $x374 $x159 $x376 $x117 $x378)))
 (let (($x401 (or $x379 $x400)))
 (let (($x359 (= footprint20 ?x113)))
 (let (($x360 (and $x359 true)))
 (let (($x361 (and $x112 $x360)))
 (let (($x356 (= footprint20 ?x151)))
 (let (($x357 (and $x356 true)))
 (let (($x358 (and $x211 $x357)))
 (let (($x362 (or $x358 $x361)))
 (let (($x352 (= footprint23 ?x107)))
 (let (($x353 (and $x352 true)))
 (let (($x146 (= x2 ?x104)))
 (let (($x147 (and $x146 true)))
 (let (($x354 (and $x147 $x353)))
 (let (($x349 (= footprint23 ?x139)))
 (let (($x350 (and $x349 true)))
 (let (($x347 (= x4 ?x136)))
 (let (($x348 (and $x347 true)))
 (let (($x351 (and $x348 $x350)))
 (let (($x355 (or $x351 $x354)))
 (let ((?x345 (intersection footprint20 footprint23)))
 (let (($x346 (= ?x57 ?x345)))
 (let ((?x342 ((as union (Array (_ BitVec 7) Bool)) ?x57 ((as union (Array (_ BitVec 7) Bool)) footprint20 footprint23))))
 (let (($x343 (= footprint0 ?x342)))
 (let (($x344 (and $x343 true)))
 (let (($x335 (= footprint0 ?x150)))
 (let (($x336 (and $x335 true)))
 (let (($x155 (= x5 ?x154)))
 (let (($x156 (and $x155 true)))
 (let (($x337 (and $x156 $x336)))
 (let (($x332 (= x3 ?x98)))
 (let (($x333 (and $x332 true)))
 (let (($x334 (and $x333 $x103)))
 (let (($x338 (or $x334 $x337)))
 (let (($x330 (and $x329 $x115)))
 (let ((?x121 (select next ?x110)))
 (let (($x122 (= ?x121 x6)))
 (let (($x123 (and $x122 true)))
 (let (($x125 (= ?x110 x6)))
 (let (($x126 (and $x125 true)))
 (let (($x128 (= x3 x6)))
 (let (($x129 (and $x128 true)))
 (let (($x133 (or $x129 $x126 $x123)))
 (let ((?x120 (store ?x113 ?x110 true)))
 (let ((?x124 (ite $x123 ?x120 ?x57)))
 (let ((?x127 (ite $x126 ?x113 ?x124)))
 (let ((?x130 (ite $x129 ?x57 ?x127)))
 (let (($x131 (= footprint0 ?x130)))
 (let (($x132 (and $x131 true)))
 (let (($x134 (and $x119 $x132 $x133)))
 (let (($x331 (or $x134 $x330)))
 (let (($x402 (and $x331 $x338 $x344 $x346 $x355 $x362 $x401)))
 (let (($x505 (or $x402 $x504)))
 (let ((?x320 (intersection ?x151 ?x107)))
 (let (($x321 (= ?x57 ?x320)))
 (let ((?x317 (store ?x151 x6 true)))
 (let (($x318 (= footprint0 ?x317)))
 (let (($x319 (and $x318 true)))
 (let (($x190 (= x1 ?x157)))
 (let (($x191 (and $x190 true)))
 (let (($x105 (= x5 ?x104)))
 (let (($x106 (and $x105 true)))
 (let (($x322 (and $x106 $x191 $x319 $x321)))
 (let ((?x314 (intersection ?x150 ?x309)))
 (let (($x315 (= ?x57 ?x314)))
 (let ((?x311 ((as union (Array (_ BitVec 7) Bool)) ?x150 ?x309)))
 (let (($x312 (= footprint0 ?x311)))
 (let (($x313 (and $x312 true)))
 (let (($x196 (= x6 ?x154)))
 (let (($x197 (and $x196 true)))
 (let (($x310 (subset ?x309 LS_t)))
 (let (($x316 (and $x305 $x310 $x197 $x313 $x315)))
 (let (($x323 (or $x316 $x322)))
 (let (($x284 (= ?x121 x4)))
 (let (($x285 (and $x284 true)))
 (let ((?x287 (ite $x285 ?x120 ?x57)))
 (let (($x282 (= ?x110 x4)))
 (let (($x283 (and $x282 true)))
 (let ((?x288 (ite $x283 ?x113 ?x287)))
 (let (($x280 (= x3 x4)))
 (let (($x281 (and $x280 true)))
 (let ((?x289 (ite $x281 ?x57 ?x288)))
 (let ((?x294 (intersection ?x289 ?x101)))
 (let (($x295 (= ?x57 ?x294)))
 (let ((?x291 ((as union (Array (_ BitVec 7) Bool)) ?x101 ?x289)))
 (let (($x292 (= footprint0 ?x291)))
 (let (($x293 (and $x292 true)))
 (let (($x290 (subset ?x289 LS_t)))
 (let (($x286 (or $x281 $x283 $x285)))
 (let (($x296 (and $x279 $x286 $x290 $x293 $x295)))
 (let (($x212 (= footprint0 ?x151)))
 (let (($x213 (and $x212 true)))
 (let (($x277 (and $x274 $x141 $x276 $x213)))
 (let (($x297 (or $x277 $x296)))
 (let (($x324 (or $x297 $x323)))
 (let (($x239 (= ?x238 x5)))
 (let (($x240 (and $x239 true)))
 (let ((?x241 (ite $x240 ?x237 ?x57)))
 (let (($x242 (= ?x104 x5)))
 (let (($x243 (and $x242 true)))
 (let ((?x244 (ite $x243 ?x107 ?x241)))
 (let (($x245 (= x6 x5)))
 (let (($x246 (and $x245 true)))
 (let ((?x247 (ite $x246 ?x57 ?x244)))
 (let ((?x268 (intersection ?x107 ?x247)))
 (let (($x269 (= ?x57 ?x268)))
 (let ((?x265 ((as union (Array (_ BitVec 7) Bool)) ?x107 ?x247)))
 (let (($x266 (= footprint0 ?x265)))
 (let (($x267 (and $x266 true)))
 (let (($x250 (or $x246 $x243 $x240)))
 (let (($x259 (subset ?x247 LS_t)))
 (let (($x263 (and $x259 $x250)))
 (let ((?x164 (select next ?x154)))
 (let (($x225 (= ?x164 x4)))
 (let (($x226 (and $x225 true)))
 (let (($x228 (= ?x154 x4)))
 (let (($x229 (and $x228 true)))
 (let (($x231 (= x5 x4)))
 (let (($x232 (and $x231 true)))
 (let (($x235 (or $x232 $x229 $x226)))
 (let ((?x168 (store ?x150 ?x154 true)))
 (let ((?x227 (ite $x226 ?x168 ?x57)))
 (let ((?x230 (ite $x229 ?x150 ?x227)))
 (let ((?x233 (ite $x232 ?x57 ?x230)))
 (let (($x260 (= ?x247 ?x233)))
 (let (($x261 (and $x260 true)))
 (let (($x262 (and $x259 $x261 $x235)))
 (let (($x264 (or $x262 $x263)))
 (let (($x270 (and $x264 $x147 $x267 $x269)))
 (let ((?x256 (intersection ?x107 ?x233)))
 (let (($x257 (= ?x57 ?x256)))
 (let ((?x253 ((as union (Array (_ BitVec 7) Bool)) ?x107 ?x233)))
 (let (($x254 (= footprint0 ?x253)))
 (let (($x255 (and $x254 true)))
 (let (($x248 (= ?x233 ?x247)))
 (let (($x249 (and $x248 true)))
 (let (($x234 (subset ?x233 LS_t)))
 (let (($x251 (and $x234 $x249 $x250)))
 (let (($x236 (and $x234 $x235)))
 (let (($x252 (or $x236 $x251)))
 (let (($x258 (and $x252 $x147 $x255 $x257)))
 (let (($x271 (or $x258 $x270)))
 (let (($x108 (= footprint0 ?x107)))
 (let (($x109 (and $x108 true)))
 (let (($x220 (= x4 ?x104)))
 (let (($x221 (and $x220 true)))
 (let (($x222 (and $x221 $x109)))
 (let (($x217 (= x3 ?x157)))
 (let (($x218 (and $x217 true)))
 (let (($x219 (and $x218 $x213)))
 (let (($x223 (or $x219 $x222)))
 (let (($x215 (and $x112 $x115)))
 (let (($x214 (and $x211 $x213)))
 (let (($x216 (or $x214 $x215)))
 (let (($x224 (or $x216 $x223)))
 (let (($x272 (or $x224 $x271)))
 (let (($x325 (or $x272 $x324)))
 (let ((?x172 (store ?x101 ?x98 true)))
 (let ((?x173 (select next ?x98)))
 (let (($x174 (= ?x173 x5)))
 (let (($x175 (and $x174 true)))
 (let ((?x176 (ite $x175 ?x172 ?x57)))
 (let (($x177 (= ?x98 x5)))
 (let (($x178 (and $x177 true)))
 (let ((?x179 (ite $x178 ?x101 ?x176)))
 (let (($x180 (= x1 x5)))
 (let (($x181 (and $x180 true)))
 (let ((?x182 (ite $x181 ?x57 ?x179)))
 (let ((?x183 ((as union (Array (_ BitVec 7) Bool)) ?x150 ?x182)))
 (let ((?x207 (intersection ?x183 ?x151)))
 (let (($x208 (= ?x57 ?x207)))
 (let ((?x204 ((as union (Array (_ BitVec 7) Bool)) ?x151 ?x183)))
 (let ((?x205 (intersection ?x204 ?x101)))
 (let (($x206 (= ?x57 ?x205)))
 (let (($x209 (and $x206 $x208)))
 (let ((?x200 (store ?x151 x1 true)))
 (let ((?x201 ((as union (Array (_ BitVec 7) Bool)) ?x200 ?x183)))
 (let (($x202 (= footprint0 ?x201)))
 (let (($x203 (and $x202 true)))
 (let (($x199 (or $x181 $x178 $x175)))
 (let (($x198 (subset ?x182 LS_t)))
 (let ((?x194 (intersection ?x150 ?x182)))
 (let (($x195 (= ?x57 ?x194)))
 (let (($x188 (= ?x183 ?x151)))
 (let (($x189 (and $x188 true)))
 (let (($x192 (and $x189 $x191)))
 (let (($x186 (subset ?x183 LS_t)))
 (let (($x165 (= ?x164 x6)))
 (let (($x166 (and $x165 true)))
 (let ((?x169 (ite $x166 ?x168 ?x57)))
 (let (($x162 (= ?x154 x6)))
 (let (($x163 (and $x162 true)))
 (let ((?x170 (ite $x163 ?x150 ?x169)))
 (let (($x160 (= x5 x6)))
 (let (($x161 (and $x160 true)))
 (let ((?x171 (ite $x161 ?x57 ?x170)))
 (let (($x184 (= ?x183 ?x171)))
 (let (($x185 (and $x184 true)))
 (let (($x167 (or $x161 $x163 $x166)))
 (let (($x187 (and $x167 $x185 $x186)))
 (let (($x193 (or $x187 $x192)))
 (let (($x152 (= ?x151 ?x150)))
 (let (($x153 (and $x152 true)))
 (let (($x148 (= x4 ?x98)))
 (let (($x149 (and $x148 true)))
 (let (($x144 (= ?x101 ?x107)))
 (let (($x145 (and $x144 true)))
 (let (($x137 (= x6 ?x136)))
 (let (($x138 (and $x137 true)))
 (let (($x118 (and $x117 $x115)))
 (let (($x135 (or $x118 $x134)))
 (let (($x326 (and $x100 $x103 $x106 $x109 $x112 $x115 $x135 $x138 $x141 $x143 $x103 $x145 $x147 $x149 $x153 $x156 $x159 $x193 $x195 $x197 $x198 $x199 $x203 $x209 $x325)))
 (let (($x327 (not $x326)))
 (let (($x96 (select footprint0 nil)))
 (let (($x97 (not $x96)))
 (let ((?x92 (select next nil)))
 (let (($x93 (= nil ?x92)))
 (let (($x94 (and $x93 true)))
 (let (($x90 (= nil (_ bv0 7))))
 (let (($x91 (and $x90 true)))
 (let (($x89 (bvule nil (_ bv6 7))))
 (let (($x87 (select LS_t x1)))
 (let (($x86 (bvule x1 (_ bv6 7))))
 (let (($x84 (select LS_t x2)))
 (let (($x83 (bvule x2 (_ bv6 7))))
 (let (($x81 (select LS_t x3)))
 (let (($x80 (bvule x3 (_ bv6 7))))
 (let (($x78 (select LS_t x4)))
 (let (($x77 (bvule x4 (_ bv6 7))))
 (let (($x75 (select LS_t x5)))
 (let (($x74 (bvule x5 (_ bv6 7))))
 (let (($x72 (select LS_t x6)))
 (let (($x71 (bvule x6 (_ bv6 7))))
 (let ((?x59 (store ?x57 (_ bv0 7) true)))
 (let ((?x60 (store ?x59 (_ bv1 7) true)))
 (let ((?x61 (store ?x60 (_ bv2 7) true)))
 (let ((?x62 (store ?x61 (_ bv3 7) true)))
 (let ((?x63 (store ?x62 (_ bv4 7) true)))
 (let ((?x64 (store ?x63 (_ bv5 7) true)))
 (let ((?x65 (store ?x64 (_ bv6 7) true)))
 (let ((?x66 (store ?x65 (_ bv7 7) true)))
 (let (($x68 (= LS_t ?x66)))
 (let (($x69 (and $x68 true)))
 (let ((?x55 (select next (_ bv0 7))))
 (let (($x56 (bvule ?x55 (_ bv6 7))))
 (let ((?x53 (select next (_ bv1 7))))
 (let (($x54 (bvule ?x53 (_ bv6 7))))
 (let ((?x51 (select next (_ bv2 7))))
 (let (($x52 (bvule ?x51 (_ bv6 7))))
 (let ((?x49 (select next (_ bv3 7))))
 (let (($x50 (bvule ?x49 (_ bv6 7))))
 (let ((?x47 (select next (_ bv4 7))))
 (let (($x48 (bvule ?x47 (_ bv6 7))))
 (let ((?x45 (select next (_ bv5 7))))
 (let (($x46 (bvule ?x45 (_ bv6 7))))
 (let ((?x43 (select next (_ bv6 7))))
 (let (($x44 (bvule ?x43 (_ bv6 7))))
 (let ((?x40 (select prev (_ bv0 7))))
 (let (($x41 (bvule ?x40 (_ bv6 7))))
 (let ((?x38 (select prev (_ bv1 7))))
 (let (($x39 (bvule ?x38 (_ bv6 7))))
 (let ((?x36 (select prev (_ bv2 7))))
 (let (($x37 (bvule ?x36 (_ bv6 7))))
 (let ((?x34 (select prev (_ bv3 7))))
 (let (($x35 (bvule ?x34 (_ bv6 7))))
 (let ((?x32 (select prev (_ bv4 7))))
 (let (($x33 (bvule ?x32 (_ bv6 7))))
 (let ((?x30 (select prev (_ bv5 7))))
 (let (($x31 (bvule ?x30 (_ bv6 7))))
 (let ((?x28 (select prev (_ bv6 7))))
 (let (($x29 (bvule ?x28 (_ bv6 7))))
 (let ((?x25 (select top (_ bv0 7))))
 (let (($x26 (bvule ?x25 (_ bv6 7))))
 (let ((?x22 (select top (_ bv1 7))))
 (let (($x23 (bvule ?x22 (_ bv6 7))))
 (let ((?x19 (select top (_ bv2 7))))
 (let (($x20 (bvule ?x19 (_ bv6 7))))
 (let ((?x16 (select top (_ bv3 7))))
 (let (($x17 (bvule ?x16 (_ bv6 7))))
 (let ((?x13 (select top (_ bv4 7))))
 (let (($x14 (bvule ?x13 (_ bv6 7))))
 (let ((?x10 (select top (_ bv5 7))))
 (let (($x11 (bvule ?x10 (_ bv6 7))))
 (let ((?x7 (select top (_ bv6 7))))
 (let (($x8 (bvule ?x7 (_ bv6 7))))
 (and $x8 $x11 $x14 $x17 $x20 $x23 $x26 $x29 $x31 $x33 $x35 $x37 $x39 $x41 $x44 $x46 $x48 $x50 $x52 $x54 $x56 $x69 $x71 $x72 $x74 $x75 $x77 $x78 $x80 $x81 $x83 $x84 $x86 $x87 $x89 $x91 $x94 $x97 $x327 $x505)))))))))))))))))))))))))))))))))))))))))))))))))))))))))))))))))))))))))))))))))))))))))))))))))))))))))))))))))))))))))))))))))))))))))))))))))))))))))))))))))))))))))))))))))))))))))))))))))))))))))))))))))))))))))))))))))))))))))))))))))))))))))))))))))))))))))))))))))))))))))))))))))))))))))))))))))))))))))))))))))))))))))))))))))))))))))))))))))))))))))))))))))))))))))))))))))))))))))))))))))))))))))))))))))))))))))))))))))))))))))))))))))))))))))))
(check-sat)
